db/data/24172349137862864240537362694517973.z3.out
-------------------
2500.204666424
